sat
(
  (define-fun C5_VM3 () Int
    0)
  (define-fun ProcProv5 () Int
    8)
  (define-fun C3_VM5 () Int
    0)
  (define-fun PriceProv9 () Int
    350)
  (define-fun C5_VM7 () Int
    1)
  (define-fun C1_VM2 () Int
    1)
  (define-fun VM1Type () Int
    278)
  (define-fun C4_VM8 () Int
    0)
  (define-fun C2_VM9 () Int
    1)
  (define-fun MemProv1 () Int
    15000)
  (define-fun MemProv2 () Int
    15000)
  (define-fun C2_VM4 () Int
    0)
  (define-fun MemProv10 () Int
    15000)
  (define-fun StorageProv6 () Int
    4000)
  (define-fun PriceProv5 () Int
    420)
  (define-fun C3_VM9 () Int
    0)
  (define-fun StorageProv7 () Int
    2000)
  (define-fun C3_VM7 () Int
    0)
  (define-fun C4_VM2 () Int
    0)
  (define-fun C3_VM8 () Int
    0)
  (define-fun PriceProv8 () Int
    350)
  (define-fun C3_VM2 () Int
    0)
  (define-fun C2_VM2 () Int
    1)
  (define-fun StorageProv4 () Int
    2000)
  (define-fun ProcProv2 () Int
    4)
  (define-fun PriceProv10 () Int
    350)
  (define-fun ProcProv9 () Int
    4)
  (define-fun C5_VM9 () Int
    0)
  (define-fun C1_VM5 () Int
    1)
  (define-fun C2_VM8 () Int
    1)
  (define-fun StorageProv3 () Int
    2000)
  (define-fun VM2Type () Int
    316)
  (define-fun C4_VM5 () Int
    0)
  (define-fun C4_VM7 () Int
    0)
  (define-fun ProcProv10 () Int
    4)
  (define-fun C5_VM8 () Int
    0)
  (define-fun ProcProv4 () Int
    4)
  (define-fun PriceProv4 () Int
    210)
  (define-fun C2_VM3 () Int
    0)
  (define-fun PriceProv3 () Int
    210)
  (define-fun ProcProv7 () Int
    8)
  (define-fun PriceProv7 () Int
    420)
  (define-fun C1_VM8 () Int
    1)
  (define-fun C4_VM3 () Int
    1)
  (define-fun C4_VM9 () Int
    0)
  (define-fun MemProv8 () Int
    15000)
  (define-fun C2_VM10 () Int
    1)
  (define-fun MemProv9 () Int
    15000)
  (define-fun C2_VM7 () Int
    0)
  (define-fun C4_VM4 () Int
    1)
  (define-fun C3_VM3 () Int
    0)
  (define-fun ProcProv8 () Int
    4)
  (define-fun C4_VM1 () Int
    1)
  (define-fun VM5Type () Int
    278)
  (define-fun C1_VM10 () Int
    1)
  (define-fun VM8Type () Int
    316)
  (define-fun PriceProv6 () Int
    350)
  (define-fun C1_VM1 () Int
    0)
  (define-fun VM4Type () Int
    341)
  (define-fun PriceProv2 () Int
    350)
  (define-fun StorageProv10 () Int
    4000)
  (define-fun VM3Type () Int
    341)
  (define-fun C5_VM10 () Int
    0)
  (define-fun MemProv4 () Int
    7500)
  (define-fun C3_VM4 () Int
    0)
  (define-fun VM6Type () Int
    316)
  (define-fun VM9Type () Int
    316)
  (define-fun C3_VM1 () Int
    1)
  (define-fun C4_VM10 () Int
    0)
  (define-fun StorageProv9 () Int
    4000)
  (define-fun C2_VM6 () Int
    1)
  (define-fun StorageProv5 () Int
    2000)
  (define-fun ProcProv3 () Int
    4)
  (define-fun C2_VM1 () Int
    0)
  (define-fun C5_VM2 () Int
    0)
  (define-fun VM10Type () Int
    316)
  (define-fun ProcProv6 () Int
    4)
  (define-fun MemProv3 () Int
    7500)
  (define-fun C1_VM9 () Int
    1)
  (define-fun C5_VM4 () Int
    0)
  (define-fun C5_VM1 () Int
    0)
  (define-fun C1_VM3 () Int
    0)
  (define-fun VM7Type () Int
    278)
  (define-fun StorageProv2 () Int
    4000)
  (define-fun C3_VM6 () Int
    0)
  (define-fun C1_VM7 () Int
    1)
  (define-fun MemProv7 () Int
    15000)
  (define-fun C1_VM6 () Int
    1)
  (define-fun StorageProv1 () Int
    2000)
  (define-fun C4_VM6 () Int
    0)
  (define-fun C3_VM10 () Int
    0)
  (define-fun MemProv5 () Int
    15000)
  (define-fun ProcProv1 () Int
    8)
  (define-fun StorageProv8 () Int
    4000)
  (define-fun PriceProv1 () Int
    420)
  (define-fun C2_VM5 () Int
    0)
  (define-fun C5_VM6 () Int
    0)
  (define-fun C1_VM4 () Int
    0)
  (define-fun C5_VM5 () Int
    1)
  (define-fun MemProv6 () Int
    15000)
)
(objectives
 ( 4940)
 ((+ 0
   PriceProv1
   PriceProv2
   PriceProv3
   PriceProv4
   PriceProv5
   PriceProv6
   PriceProv7
   PriceProv8
   PriceProv9
   PriceProv10) 3430)
)
(:added-eqs                   29314014
 :arith-eq-adapter            148352615
 :arith-bound-propagations-lp 1317880
 :arith-conflicts             230
 :arith-diseq                 181682153
 :arith-fixed-eqs             414305
 :arith-lower                 206885942
 :arith-make-feasible         17982648
 :arith-max-columns           615
 :arith-max-rows              32
 :arith-upper                 168752941
 :binary-propagations         459188607
 :bv-bit2core                 3064338
 :bv-dynamic-diseqs           210380882
 :bv->core-eq                 893
 :conflicts                   258891
 :decisions                   102044207
 :del-clause                  296020670
 :final-checks                10003
 :max-memory                  478.96
 :maxsat-cores                4888
 :memory                      444.46
 :minimized-lits              2000281
 :mk-bool-var                 138133256
 :mk-clause                   296026530
 :mk-clause-binary            40997
 :num-allocs                  794821140469434.00
 :num-checks                  17539
 :pb-conflicts                4113
 :pb-predicates               7
 :pb-propagations             415769
 :pb-resolves                 241
 :propagations                889616850
 :restarts                    839
 :rlimit-count                2253035078
 :time                        2013.41
 :total-time                  1307.48)
